BEGIN IONS
TITLE=Example_0
SMILES=CC1=CC(=O)OC2=CC(OS(O)(=O)=O)=CC=C12
PRECURSORTYPE=[M-H]-
COLLISIONENERGY=17.0
INSTRUMENTTYPE=HCD
COMMENT="In silico generated spectrum by Fiora OS v0.1.0"
254.99578536409004 0.49404072761535645
239.97285884800002 0.004418256692588329
159.04405588409 0.0022231205366551876
177.05462056809 0.025992797687649727
176.047344116 0.003682356560602784
175.03897050409 0.3941051959991455
174.031694052 0.004479981027543545
173.02332044009 0.0026908176951110363
81.97246492400001 0.002399961929768324
80.96409131209 0.028634387999773026
79.95681486000001 0.022089725360274315
78.94844124809 0.0016673929058015347
END IONS
BEGIN IONS
TITLE=Example_1
SMILES=CC12CCC3C(CCC4=CC(OS(O)(=O)=O)=CC=C34)C1CCC2=O
PRECURSORTYPE=[M-H]-
COLLISIONENERGY=24.0
INSTRUMENTTYPE=HCD
COMMENT="In silico generated spectrum by Fiora OS v0.1.0"
349.11042119209003 0.6893534660339355
251.14304164809 0.0010026555974036455
96.95900593209001 0.00546703115105629
271.16925639609 0.008409821428358555
270.161979944 0.0013404660858213902
269.15360633209 0.23516182601451874
268.14632988 0.0017715865978971124
267.13795626809 0.004172142129391432
81.97246492400001 0.0022933862637728453
80.96409131209 0.023456167429685593
79.95681486000001 0.014723578467965126
END IONS
BEGIN IONS
TITLE=Example_2
SMILES=ClC1=CC=C(NC(=O)NC2=CC=C(Cl)C(Cl)=C2)C=C1
PRECURSORTYPE=[M-H]-
COLLISIONENERGY=21.0
INSTRUMENTTYPE=HCD
COMMENT="In silico generated spectrum by Fiora OS v0.1.0"
312.96967233609007 0.05270859971642494
276.99299462409 0.0012185873929411173
126.01050326008999 0.11667297780513763
187.96644552809 0.0021030157804489136
185.95079546409 0.042227853089571
154.00541788009 0.0011682217009365559
152.998141428 0.0015727076679468155
151.98976781609 0.059813182801008224
160.97990452 0.0011015415657311678
159.97153090809 0.72437584400177
157.95588084409 0.0013773393584415317
276.99299462409 0.006584568880498409
END IONS
BEGIN IONS
TITLE=Example_3
SMILES=Oc1c(Cl)cc(Cl)cc1C(=O)Nc1ccc(Cl)c(Cl)c1
PRECURSORTYPE=[M-H]-
COLLISIONENERGY=24.0
INSTRUMENTTYPE=HCD
COMMENT="In silico generated spectrum by Fiora OS v0.1.0"
347.91471557209 0.39625346660614014
329.90415088809004 0.003739121835678816
313.95368792409005 0.007955800741910934
312.946411472 0.0012892185477539897
311.93803786009005 0.06754685938358307
313.95368792409005 0.0018755675991997123
311.93803786009005 0.11075834184885025
160.95554649609 0.18055304884910583
159.948270044 0.005048992112278938
158.93989643209 0.0045566316694021225
187.96644552809 0.002774270949885249
186.959169076 0.002064639935269952
185.95079546409 0.01612113229930401
188.95046111609 0.006467987317591906
186.93481105209 0.0025412077084183693
161.98718097209 0.0061546252109110355
159.97153090809 0.12130070477724075
311.93803786009005 0.0017237046267837286
311.93803786009 0.03445927053689957
END IONS
BEGIN IONS
TITLE=Example_4
SMILES=NC(=O)\C=C\C1=CC=CC=C1
PRECURSORTYPE=[M+H]+
COLLISIONENERGY=10.0
INSTRUMENTTYPE=HCD
COMMENT="In silico generated spectrum by Fiora OS v0.1.0"
148.07569036009 0.7296960949897766
18.03382554809 0.002630910836160183
131.04914126409 0.12273713201284409
130.06512567609 0.006028285715728998
44.01309010409 0.007694608066231012
105.06987670808999 0.030062800273299217
103.05422664409 0.029289299622178078
60.044390232089995 0.004041737876832485
93.06987670808999 0.0012019890127703547
91.05422664409 0.027438443154096603
89.03857658009 0.005073912907391787
70.02874016809 0.01528693363070488
79.05422664409 0.01710146851837635
77.03857658009 0.006522791460156441
END IONS
BEGIN IONS
TITLE=Example_5
SMILES=ClC1=CC2=C(C=C1)N(C1CCN(CCCN3C(=O)NC4=C3C=CC=C4)CC1)C(=O)N2
PRECURSORTYPE=[M+H]+
COLLISIONENERGY=29.0
INSTRUMENTTYPE=HCD
COMMENT="In silico generated spectrum by Fiora OS v0.1.0"
426.16912914009004 0.2720046639442444
391.20082504000004 0.006616425234824419
390.19245142809007 0.013004698790609837
252.08981620008998 0.01642698049545288
250.07416613608999 0.004681653343141079
176.094963004 0.0010908900294452906
175.08658939209 0.4270830452442169
173.07093932809 0.0036335564218461514
264.08981620009 0.04391305148601532
278.10546626409 0.005758216138929129
149.07093932809 0.011888459324836731
147.05528926409 0.1694655418395996
146.048012812 0.0014971771743148565
145.03963920009 0.001573077985085547
END IONS
BEGIN IONS
TITLE=Example_6
SMILES=C1CCC(CC1)NC1=NC2=CC=CC=C2S1
PRECURSORTYPE=[M+H]+
COLLISIONENERGY=16.0
INSTRUMENTTYPE=HCD
COMMENT="In silico generated spectrum by Fiora OS v0.1.0"
233.11069596408998 0.7514726519584656
84.093900384 0.001243643113411963
83.08552677208999 0.0038546717260032892
151.03244564409 0.2324676662683487
150.025169192 0.0025252157356590033
149.01679558009 0.0022923536598682404
136.02154661209 0.005568165332078934
END IONS
BEGIN IONS
TITLE=Example_7
SMILES=CCCCC1=C(C)N=C(NCC)N=C1OS(=O)(=O)N(C)C
PRECURSORTYPE=[M+H]+
COLLISIONENERGY=22.0
INSTRUMENTTYPE=HCD
COMMENT="In silico generated spectrum by Fiora OS v0.1.0"
317.16418808009 0.5473006367683411
274.12198892009 0.0037778886035084724
272.10633885609 0.006113689858466387
46.06512567608999 0.0020814514718949795
45.057849223999995 0.0012378334067761898
44.04947561208999 0.0032717797439545393
289.13288795209 0.012658447027206421
288.1256115 0.001829076325520873
287.11723788809 0.001214293297380209
192.14952399608998 0.023151027038693428
126.02194053609 0.005235521588474512
125.014664084 0.001154830097220838
124.00629047209 0.0014944967115297914
210.16008868008998 0.09066648036241531
209.152812228 0.08950329571962357
208.14443861608999 0.06407715380191803
108.01137585209 0.00788318831473589
274.12198892009 0.0012838575057685375
272.10633885609 0.007665334735065699
46.06512567608999 0.012128405272960663
45.057849223999995 0.022220604121685028
44.04947561208999 0.030157234519720078
303.14853801609 0.0022780736908316612
302.141261564 0.0029769090469926596
301.13288795209 0.002926410408690572
END IONS
BEGIN IONS
TITLE=Example_8
SMILES=CC(C)(C)C1=CC=C(C=C1)C(=O)CCCN1CCC(CC1)OC(C1=CC=CC=C1)C1=CC=CC=C1
PRECURSORTYPE=[M+H]+
COLLISIONENERGY=32.0
INSTRUMENTTYPE=HCD
COMMENT="In silico generated spectrum by Fiora OS v0.1.0"
470.30535594009 0.05272216349840164
57.06987670808999 0.009659197181463242
414.24275568409007 0.0016685060691088438
133.10117683609 0.001280024996958673
336.1958054920901 0.0037122529465705156
452.29479125609004 0.0024197613820433617
161.09609145609 0.03652031719684601
308.20089087209004 0.004228377249091864
294.18524080809004 0.0025737157557159662
204.15141526 0.001305093988776207
203.14304164809 0.17634406685829163
268.16959074409004 0.002095663221552968
287.224914548 0.0016239925753325224
286.21654093609004 0.04086936265230179
285.209264484 0.0020048802252858877
284.20089087209004 0.008492108434438705
185.09609145609 0.0026444264221936464
183.08044139209 0.0010610322933644056
304.22710562009 0.02651469223201275
303.219829168 0.016615305095911026
302.21145555609 0.10272148251533508
301.204179104 0.003906683064997196
300.19580549209 0.003851367859169841
169.10117683609 0.0016144285909831524
168.093900384 0.0215117447078228
167.08552677209 0.3938639760017395
166.07825032 0.025549720972776413
165.06987670809 0.039943356066942215
77.03857658009 0.0039049284532666206
END IONS
BEGIN IONS
TITLE=Example_9
SMILES=FC1=CC(OC2=CC=C(C=C2Cl)C(F)(F)F)=CC=C1NC(=O)NC(=O)C1=C(F)C=CC=C1F
PRECURSORTYPE=[M+H]+
COLLISIONENERGY=34.0
INSTRUMENTTYPE=HCD
COMMENT="In silico generated spectrum by Fiora OS v0.1.0"
489.04351566409 0.021121079102158546
469.03728741209 0.0015657227486371994
306.03033088809 0.04098856821656227
305.023054436 0.0019440499600023031
304.01468082409 0.007350179832428694
185.02883484 0.0037660219240933657
184.02046122809 0.12051494419574738
334.02524550809 0.002376265125349164
333.01796905599997 0.008921904489398003
332.00959544409 0.24332931637763977
329.99394538009 0.0011160817230120301
158.04119667209 0.2187902182340622
157.03392022 0.0017510888865217566
156.02554660809 0.0017402577213943005
347.02049447609005 0.001210607122629881
143.03029764009 0.0017824274254962802
142.023021188 0.007585473824292421
141.01464757609 0.25847920775413513
140.007371124 0.0014708134112879634
138.99899751209 0.0015636925818398595
471.03295098009005 0.016907943412661552
376.023782708 0.0012001859722658992
375.01540909609 0.01193586178123951
113.01973295609 0.0038612601347267628
END IONS
